Welcome to the CBC MILP Solver 
Version: Trunk
Build Date: Apr 16 2020 

Starting solution of the Linear programming relaxation problem using Primal Simplex

Using Python-MIP package version 1.8.1
Machines:  4 Jobs:  4
Order: 
Job  0 : machine 0 ( 10 ) machine 3 ( 1 ) machine 2 ( 6 ) machine 1 ( 7 ) 
Job  1 : machine 0 ( 1 ) machine 3 ( 7 ) machine 1 ( 5 ) machine 2 ( 8 ) 
Job  2 : machine 3 ( 9 ) machine 2 ( 3 ) machine 1 ( 7 ) machine 0 ( 1 ) 
Job  3 : machine 1 ( 7 ) machine 3 ( 3 ) machine 0 ( 9 ) machine 2 ( 10 ) 
K:  44
Job  0 , e: machine  0 ( 0 ) machine  1 ( 17 ) machine  2 ( 11 ) machine  3 ( 10 ) 
Job  1 , e: machine  0 ( 0 ) machine  1 ( 8 ) machine  2 ( 13 ) machine  3 ( 1 ) 
Job  2 , e: machine  0 ( 19 ) machine  1 ( 12 ) machine  2 ( 9 ) machine  3 ( 0 ) 
Job  3 , e: machine  0 ( 10 ) machine  1 ( 0 ) machine  2 ( 19 ) machine  3 ( 7 ) 
Job  0 , f: machine  0 ( 14 ) machine  1 ( 0 ) machine  2 ( 7 ) machine  3 ( 13 ) 
Job  1 , f: machine  0 ( 20 ) machine  1 ( 8 ) machine  2 ( 0 ) machine  3 ( 13 ) 
Job  2 , f: machine  0 ( 0 ) machine  1 ( 1 ) machine  2 ( 8 ) machine  3 ( 11 ) 
Job  3 , f: machine  0 ( 10 ) machine  1 ( 22 ) machine  2 ( 0 ) machine  3 ( 19 ) 
EST and LST:
Job: 0 Machine: 0 EST: 0 LST: 20
Job: 0 Machine: 1 EST: 17 LST: 37
Job: 0 Machine: 2 EST: 11 LST: 31
Job: 0 Machine: 3 EST: 10 LST: 30
Job: 1 Machine: 0 EST: 0 LST: 23
Job: 1 Machine: 1 EST: 8 LST: 31
Job: 1 Machine: 2 EST: 13 LST: 36
Job: 1 Machine: 3 EST: 1 LST: 24
Job: 2 Machine: 0 EST: 19 LST: 43
Job: 2 Machine: 1 EST: 12 LST: 36
Job: 2 Machine: 2 EST: 9 LST: 33
Job: 2 Machine: 3 EST: 0 LST: 24
Job: 3 Machine: 0 EST: 10 LST: 25
Job: 3 Machine: 1 EST: 0 LST: 15
Job: 3 Machine: 2 EST: 19 LST: 34
Job: 3 Machine: 3 EST: 7 LST: 22
Order:
Job: 0 Machine: 0 = 0 
Job: 0 Machine: 1 = 3 
Job: 0 Machine: 2 = 2 
Job: 0 Machine: 3 = 1 
Job: 1 Machine: 0 = 0 
Job: 1 Machine: 1 = 2 
Job: 1 Machine: 2 = 3 
Job: 1 Machine: 3 = 1 
Job: 2 Machine: 0 = 3 
Job: 2 Machine: 1 = 2 
Job: 2 Machine: 2 = 1 
Job: 2 Machine: 3 = 0 
Job: 3 Machine: 0 = 2 
Job: 3 Machine: 1 = 0 
Job: 3 Machine: 2 = 3 
Job: 3 Machine: 3 = 1 
Distances:
Job 0, Machine 0 -> Machine 3: distance 10
Job 0, Machine 0 -> Machine 2: distance 11
Job 0, Machine 0 -> Machine 1: distance 17
Job 0, Machine 3 -> Machine 2: distance 1
Job 0, Machine 3 -> Machine 1: distance 7
Job 0, Machine 2 -> Machine 1: distance 6
Job 1, Machine 0 -> Machine 3: distance 1
Job 1, Machine 0 -> Machine 1: distance 8
Job 1, Machine 0 -> Machine 2: distance 13
Job 1, Machine 3 -> Machine 1: distance 7
Job 1, Machine 3 -> Machine 2: distance 12
Job 1, Machine 1 -> Machine 2: distance 5
Job 2, Machine 3 -> Machine 2: distance 9
Job 2, Machine 3 -> Machine 1: distance 12
Job 2, Machine 3 -> Machine 0: distance 19
Job 2, Machine 2 -> Machine 1: distance 3
Job 2, Machine 2 -> Machine 0: distance 10
Job 2, Machine 1 -> Machine 0: distance 7
Job 3, Machine 1 -> Machine 3: distance 7
Job 3, Machine 1 -> Machine 0: distance 10
Job 3, Machine 1 -> Machine 2: distance 19
Job 3, Machine 3 -> Machine 0: distance 3
Job 3, Machine 3 -> Machine 2: distance 12
Job 3, Machine 0 -> Machine 2: distance 9
McCormic linearization
{(0, 1), (0, 0), (2, 1), (2, 0), (1, 1)}
[(0, 1), (0, 0), (2, 1), (2, 0), (1, 1)]
obj:  0.9761206535400084
solutions:  1
+ 0.041474654377880185x(0,1) + 0.01131126937578551x(2,1) + 0.0029325513196480878x(1,1) 
C:  29.000000000000004
x(0,0) = 0.00	 x(0,1) = 22.00	 x(0,2) = 11.00	 x(0,3) = 10.00	 
x(1,0) = 8.00	 x(1,1) = 16.00	 x(1,2) = 21.00	 x(1,3) = 9.00	 
x(2,0) = 19.53	 x(2,1) = 12.53	 x(2,2) = 9.53	 x(2,3) = 0.53	 
x(3,0) = 10.00	 x(3,1) = 0.00	 x(3,2) = 19.00	 x(3,3) = 7.00	 
y(0,1,0) = 0.38	 y(1,0,0) = 0.62	 
y(0,2,0) = 0.71	 y(2,0,0) = 0.29	 
y(0,3,0) = 1.00	 y(3,0,0) = 0.00	 
y(1,2,0) = 0.28	 y(2,1,0) = 0.72	 
y(1,3,0) = 0.96	 y(3,1,0) = 0.04	 
y(2,3,0) = 0.00	 y(3,2,0) = 1.00	 
y(0,1,1) = 0.28	 y(1,0,1) = 0.72	 
y(0,2,1) = 0.14	 y(2,0,1) = 0.86	 
y(0,3,1) = 0.00	 y(3,0,1) = 1.00	 
y(1,2,1) = 0.10	 y(2,1,1) = 0.90	 
y(1,3,1) = 0.38	 y(3,1,1) = 0.62	 
y(2,3,1) = 0.00	 y(3,2,1) = 1.00	 
y(0,1,2) = 0.55	 y(1,0,2) = 0.45	 
y(0,2,2) = 0.08	 y(2,0,2) = 0.92	 
y(0,3,2) = 0.79	 y(3,0,2) = 0.21	 
y(1,2,2) = 0.00	 y(2,1,2) = 1.00	 
y(1,3,2) = 0.26	 y(3,1,2) = 0.74	 
y(2,3,2) = 0.71	 y(3,2,2) = 0.29	 
y(0,1,3) = 0.29	 y(1,0,3) = 0.71	 
y(0,2,3) = 0.02	 y(2,0,3) = 0.98	 
y(0,3,3) = 0.00	 y(3,0,3) = 1.00	 
y(1,2,3) = 0.02	 y(2,1,3) = 0.98	 
y(1,3,3) = 0.04	 y(3,1,3) = 0.96	 
y(2,3,3) = 0.38	 y(3,2,3) = 0.62	 
{(1, 2), (1, 3), (0, 2), (2, 3), (0, 3), (1, 1)}
obj:  0.8957049625654278
solutions:  1
+ 0.06976744186046513x(1,3) + 0.06686046511627909x(2,3) + 0.02325581395348836x(0,3) 
[(1, 2), (1, 3), (0, 2), (2, 3), (0, 3), (1, 1)]
cliques:  1 mip: 127
C:  29.640000000000004
x(0,0) = 5.64	 x(0,1) = 22.64	 x(0,2) = 16.64	 x(0,3) = 15.64	 
x(1,0) = 0.00	 x(1,1) = 8.00	 x(1,2) = 13.00	 x(1,3) = 1.00	 
x(2,0) = 27.47	 x(2,1) = 20.47	 x(2,2) = 17.47	 x(2,3) = 8.47	 
x(3,0) = 10.00	 x(3,1) = 0.00	 x(3,2) = 19.00	 x(3,3) = 7.00	 
y(0,1,0) = 0.00	 y(1,0,0) = 1.00	 
y(0,2,0) = 0.55	 y(2,0,0) = 0.45	 
y(0,3,0) = 0.72	 y(3,0,0) = 0.28	 
y(1,2,0) = 0.65	 y(2,1,0) = 0.35	 
y(1,3,0) = 0.62	 y(3,1,0) = 0.37	 
y(2,3,0) = 0.00	 y(3,2,0) = 1.00	 
y(0,1,1) = 0.08	 y(1,0,1) = 0.92	 
y(0,2,1) = 0.19	 y(2,0,1) = 0.81	 
y(0,3,1) = 0.00	 y(3,0,1) = 1.00	 
y(1,2,1) = 0.56	 y(2,1,1) = 0.44	 
y(1,3,1) = 0.04	 y(3,1,1) = 0.96	 
y(2,3,1) = 0.00	 y(3,2,1) = 1.00	 
y(0,1,2) = 0.21	 y(1,0,2) = 0.79	 
y(0,2,2) = 0.31	 y(2,0,2) = 0.69	 
y(0,3,2) = 0.80	 y(3,0,2) = 0.20	 
y(1,2,2) = 0.32	 y(2,1,2) = 0.68	 
y(1,3,2) = 0.92	 y(3,1,2) = 0.08	 
y(2,3,2) = 0.91	 y(3,2,2) = 0.09	 
y(0,1,3) = 0.35	 y(1,0,3) = 0.65	 
y(0,2,3) = 0.08	 y(2,0,3) = 0.92	 
y(0,3,3) = 0.28	 y(3,0,3) = 0.72	 
y(1,2,3) = 0.51	 y(2,1,3) = 0.49	 
y(1,3,3) = 0.37	 y(3,1,3) = 0.63	 
y(2,3,3) = 0.06	 y(3,2,3) = 0.94	 
{(1, 3), (0, 0), (2, 3), (1, 0), (0, 3)}
obj:  0.9932982070429475
solutions:  1
+ 0.06713164777680905x(1,3) + 0.06102877070619006x(2,3) + 0.026155187445510028x(0,3) 
[(1, 3), (0, 0), (2, 3), (1, 0), (0, 3)]
cliques:  1 mip: 169
C:  30.999999999999993
x(0,0) = 1.00	 x(0,1) = 21.56	 x(0,2) = 12.00	 x(0,3) = 11.00	 
x(1,0) = 0.00	 x(1,1) = 8.00	 x(1,2) = 13.00	 x(1,3) = 1.00	 
x(2,0) = 29.57	 x(2,1) = 22.57	 x(2,2) = 19.57	 x(2,3) = 10.57	 
x(3,0) = 11.00	 x(3,1) = 1.00	 x(3,2) = 21.00	 x(3,3) = 8.00	 
y(0,1,0) = 0.00	 y(1,0,0) = 1.00	 
y(0,2,0) = 0.81	 y(2,0,0) = 0.19	 
y(0,3,0) = 1.00	 y(3,0,0) = 0.00	 
y(1,2,0) = 0.98	 y(2,1,0) = 0.02	 
y(1,3,0) = 0.59	 y(3,1,0) = 0.41	 
y(2,3,0) = 0.00	 y(3,2,0) = 1.00	 
y(0,1,1) = 0.00	 y(1,0,1) = 1.00	 
y(0,2,1) = 0.62	 y(2,0,1) = 0.38	 
y(0,3,1) = 0.00	 y(3,0,1) = 1.00	 
y(1,2,1) = 0.98	 y(2,1,1) = 0.02	 
y(1,3,1) = -0.00	 y(3,1,1) = 1.00	 
y(2,3,1) = 0.00	 y(3,2,1) = 1.00	 
y(0,1,2) = 0.39	 y(1,0,2) = 0.61	 
y(0,2,2) = 0.42	 y(2,0,2) = 0.58	 
y(0,3,2) = 1.00	 y(3,0,2) = 0.00	 
y(1,2,2) = 0.94	 y(2,1,2) = 0.06	 
y(1,3,2) = 1.00	 y(3,1,2) = 0.00	 
y(2,3,2) = 0.91	 y(3,2,2) = 0.09	 
y(0,1,3) = 0.21	 y(1,0,3) = 0.79	 
y(0,2,3) = 0.37	 y(2,0,3) = 0.63	 
y(0,3,3) = 0.00	 y(3,0,3) = 1.00	 
y(1,2,3) = 0.97	 y(2,1,3) = 0.03	 
y(1,3,3) = 0.89	 y(3,1,3) = 0.11	 
y(2,3,3) = 0.02	 y(3,2,3) = 0.98	 
{(1, 2), (2, 3), (2, 2), (0, 3), (0, 2)}
obj:  0.8317757009346207
solutions:  1
+ 0.04672897196261683x(1,2) + 0.018691588785046724x(0,2) 
[(1, 2), (2, 3), (2, 2), (0, 3), (0, 2)]
cliques:  1 mip: 138
C:  31.36621162596937
x(0,0) = 3.24	 x(0,1) = 24.02	 x(0,2) = 17.49	 x(0,3) = 13.84	 
x(1,0) = 0.00	 x(1,1) = 9.40	 x(1,2) = 14.40	 x(1,3) = 1.00	 
x(2,0) = 28.35	 x(2,1) = 21.35	 x(2,2) = 18.35	 x(2,3) = 9.35	 
x(3,0) = 10.00	 x(3,1) = 0.00	 x(3,2) = 20.88	 x(3,3) = 7.00	 
y(0,1,0) = 0.00	 y(1,0,0) = 1.00	 
y(0,2,0) = 0.59	 y(2,0,0) = 0.41	 
y(0,3,0) = 0.84	 y(3,0,0) = 0.16	 
y(1,2,0) = 0.98	 y(2,1,0) = 0.02	 
y(1,3,0) = 0.87	 y(3,1,0) = 0.13	 
y(2,3,0) = 0.00	 y(3,2,0) = 1.00	 
y(0,1,1) = 0.00	 y(1,0,1) = 1.00	 
y(0,2,1) = 0.52	 y(2,0,1) = 0.48	 
y(0,3,1) = 0.00	 y(3,0,1) = 1.00	 
y(1,2,1) = 0.90	 y(2,1,1) = 0.10	 
y(1,3,1) = 0.01	 y(3,1,1) = 0.99	 
y(2,3,1) = 0.00	 y(3,2,1) = 1.00	 
y(0,1,2) = 0.31	 y(1,0,2) = 0.69	 
y(0,2,2) = 0.21	 y(2,0,2) = 0.79	 
y(0,3,2) = 0.41	 y(3,0,2) = 0.59	 
y(1,2,2) = 0.73	 y(2,1,2) = 0.27	 
y(1,3,2) = 0.94	 y(3,1,2) = 0.06	 
y(2,3,2) = 0.97	 y(3,2,2) = 0.03	 
y(0,1,3) = 0.54	 y(1,0,3) = 0.46	 
y(0,2,3) = 0.20	 y(2,0,3) = 0.80	 
y(0,3,3) = 0.00	 y(3,0,3) = 1.00	 
y(1,2,3) = 0.96	 y(2,1,3) = 0.04	 
y(1,3,3) = 0.79	 y(3,1,3) = 0.21	 
y(2,3,3) = 0.03	 y(3,2,3) = 0.97	 
{(0, 1), (1, 2), (2, 1), (2, 2), (0, 2)}
obj:  0.9999999999999998
erro
[(0, 1), (1, 2), (2, 1), (2, 2), (0, 2)]
cliques:  0 mip: 186
C:  32.245738018908945
x(0,0) = 2.87	 x(0,1) = 25.25	 x(0,2) = 15.87	 x(0,3) = 12.87	 
x(1,0) = 1.87	 x(1,1) = 9.87	 x(1,2) = 15.05	 x(1,3) = 2.87	 
x(2,0) = 31.25	 x(2,1) = 24.25	 x(2,2) = 18.87	 x(2,3) = 9.87	 
x(3,0) = 12.87	 x(3,1) = 2.87	 x(3,2) = 21.87	 x(3,3) = 9.87	 
y(0,1,0) = -0.00	 y(1,0,0) = 1.00	 
y(0,2,0) = 0.81	 y(2,0,0) = 0.19	 
y(0,3,0) = 1.00	 y(3,0,0) = 0.00	 
y(1,2,0) = 0.85	 y(2,1,0) = 0.15	 
y(1,3,0) = 0.89	 y(3,1,0) = 0.11	 
y(2,3,0) = 0.00	 y(3,2,0) = 1.00	 
y(0,1,1) = 0.03	 y(1,0,1) = 0.97	 
y(0,2,1) = 0.23	 y(2,0,1) = 0.77	 
y(0,3,1) = 0.00	 y(3,0,1) = 1.00	 
y(1,2,1) = 0.82	 y(2,1,1) = 0.18	 
y(1,3,1) = 0.16	 y(3,1,1) = 0.84	 
y(2,3,1) = 0.00	 y(3,2,1) = 1.00	 
y(0,1,2) = 0.22	 y(1,0,2) = 0.78	 
y(0,2,2) = 0.33	 y(2,0,2) = 0.67	 
y(0,3,2) = 1.00	 y(3,0,2) = 0.00	 
y(1,2,2) = 0.44	 y(2,1,2) = 0.56	 
y(1,3,2) = 0.95	 y(3,1,2) = 0.05	 
y(2,3,2) = 1.00	 y(3,2,2) = 0.00	 
y(0,1,3) = 0.08	 y(1,0,3) = 0.92	 
y(0,2,3) = 0.26	 y(2,0,3) = 0.74	 
y(0,3,3) = 0.00	 y(3,0,3) = 1.00	 
y(1,2,3) = 1.00	 y(2,1,3) = 0.00	 
y(1,3,3) = 0.79	 y(3,1,3) = 0.21	 
y(2,3,3) = 0.12	 y(3,2,3) = 0.88	 
{(1, 2), (0, 1), (0, 2), (2, 3), (2, 2), (0, 3), (1, 1)}
obj:  0.9999999999999998
erro
[(1, 2), (0, 1), (0, 2), (2, 3), (2, 2), (0, 3), (1, 1)]
cliques:  0 mip: 145
C:  33.00000000000001
x(0,0) = 2.66	 x(0,1) = 26.00	 x(0,2) = 13.66	 x(0,3) = 12.66	 
x(1,0) = 1.66	 x(1,1) = 10.94	 x(1,2) = 15.94	 x(1,3) = 2.66	 
x(2,0) = 30.15	 x(2,1) = 23.15	 x(2,2) = 18.66	 x(2,3) = 9.66	 
x(3,0) = 12.66	 x(3,1) = 2.66	 x(3,2) = 22.47	 x(3,3) = 9.66	 
y(0,1,0) = 0.00	 y(1,0,0) = 1.00	 
y(0,2,0) = 0.74	 y(2,0,0) = 0.26	 
y(0,3,0) = 1.00	 y(3,0,0) = 0.00	 
y(1,2,0) = 0.86	 y(2,1,0) = 0.14	 
y(1,3,0) = 0.86	 y(3,1,0) = 0.14	 
y(2,3,0) = 0.00	 y(3,2,0) = 1.00	 
y(0,1,1) = 0.00	 y(1,0,1) = 1.00	 
y(0,2,1) = 0.69	 y(2,0,1) = 0.31	 
y(0,3,1) = 0.00	 y(3,0,1) = 1.00	 
y(1,2,1) = 0.76	 y(2,1,1) = 0.24	 
y(1,3,1) = 0.10	 y(3,1,1) = 0.90	 
y(2,3,1) = 0.00	 y(3,2,1) = 1.00	 
y(0,1,2) = 0.58	 y(1,0,2) = 0.42	 
y(0,2,2) = 0.43	 y(2,0,2) = 0.57	 
y(0,3,2) = 1.00	 y(3,0,2) = 0.00	 
y(1,2,2) = 0.25	 y(2,1,2) = 0.75	 
y(1,3,2) = 0.93	 y(3,1,2) = 0.07	 
y(2,3,2) = 0.46	 y(3,2,2) = 0.54	 
y(0,1,3) = 0.03	 y(1,0,3) = 0.97	 
y(0,2,3) = 0.26	 y(2,0,3) = 0.74	 
y(0,3,3) = 0.00	 y(3,0,3) = 1.00	 
y(1,2,3) = 1.00	 y(2,1,3) = 0.00	 
y(1,3,3) = 0.73	 y(3,1,3) = 0.27	 
y(2,3,3) = 0.12	 y(3,2,3) = 0.88	 
{(1, 2), (3, 2), (3, 0), (2, 3), (2, 2), (0, 3), (0, 2)}
obj:  0.9030519962971519
solutions:  1
+ 0.014930399640772335x(1,2) + 0.023462056578356545x(3,2) + 0.010103277952402331x(0,2) 
[(1, 2), (3, 2), (3, 0), (2, 3), (2, 2), (0, 3), (0, 2)]
cliques:  1 mip: 158
C:  33.88440712189411
x(0,0) = 7.00	 x(0,1) = 24.59	 x(0,2) = 18.59	 x(0,3) = 17.00	 
x(1,0) = -0.00	 x(1,1) = 13.64	 x(1,2) = 19.64	 x(1,3) = 1.00	 
x(2,0) = 28.60	 x(2,1) = 21.60	 x(2,2) = 17.00	 x(2,3) = 8.00	 
x(3,0) = 13.12	 x(3,1) = 3.12	 x(3,2) = 22.12	 x(3,3) = 10.12	 
y(0,1,0) = 0.30	 y(1,0,0) = 0.70	 
y(0,2,0) = 0.63	 y(2,0,0) = 0.37	 
y(0,3,0) = 0.61	 y(3,0,0) = 0.39	 
y(1,2,0) = 0.97	 y(2,1,0) = 0.03	 
y(1,3,0) = 0.82	 y(3,1,0) = 0.18	 
y(2,3,0) = 0.00	 y(3,2,0) = 1.00	 
y(0,1,1) = 0.00	 y(1,0,1) = 1.00	 
y(0,2,1) = 0.29	 y(2,0,1) = 0.71	 
y(0,3,1) = 0.00	 y(3,0,1) = 1.00	 
y(1,2,1) = 0.63	 y(2,1,1) = 0.37	 
y(1,3,1) = 0.15	 y(3,1,1) = 0.85	 
y(2,3,1) = 0.00	 y(3,2,1) = 1.00	 
y(0,1,2) = 0.57	 y(1,0,2) = 0.43	 
y(0,2,2) = 0.14	 y(2,0,2) = 0.86	 
y(0,3,2) = 0.86	 y(3,0,2) = 0.14	 
y(1,2,2) = 0.02	 y(2,1,2) = 0.98	 
y(1,3,2) = 0.78	 y(3,1,2) = 0.22	 
y(2,3,2) = 0.68	 y(3,2,2) = 0.32	 
y(0,1,3) = 0.00	 y(1,0,3) = 1.00	 
y(0,2,3) = 0.00	 y(2,0,3) = 1.00	 
y(0,3,3) = 0.00	 y(3,0,3) = 1.00	 
y(1,2,3) = 1.00	 y(2,1,3) = 0.00	 
y(1,3,3) = 1.00	 y(3,1,3) = -0.00	 
y(2,3,3) = 0.34	 y(3,2,3) = 0.66	 
{(1, 2), (0, 1), (0, 2), (2, 3), (0, 3), (1, 1)}
obj:  1.2654225811735649
erro
[(1, 2), (0, 1), (0, 2), (2, 3), (0, 3), (1, 1)]
cliques:  0 mip: 179
C:  34.33333333333332
x(0,0) = 7.33	 x(0,1) = 25.79	 x(0,2) = 18.33	 x(0,3) = 17.33	 
x(1,0) = 1.19	 x(1,1) = 10.51	 x(1,2) = 16.33	 x(1,3) = 2.73	 
x(2,0) = 28.49	 x(2,1) = 21.49	 x(2,2) = 15.51	 x(2,3) = 6.08	 
x(3,0) = 14.72	 x(3,1) = 4.72	 x(3,2) = 24.33	 x(3,3) = 11.72	 
y(0,1,0) = 0.32	 y(1,0,0) = 0.68	 
y(0,2,0) = 0.50	 y(2,0,0) = 0.50	 
y(0,3,0) = 0.71	 y(3,0,0) = 0.29	 
y(1,2,0) = 0.84	 y(2,1,0) = 0.16	 
y(1,3,0) = 0.73	 y(3,1,0) = 0.27	 
y(2,3,0) = 0.00	 y(3,2,0) = 1.00	 
y(0,1,1) = 0.00	 y(1,0,1) = 1.00	 
y(0,2,1) = 0.19	 y(2,0,1) = 0.81	 
y(0,3,1) = 0.00	 y(3,0,1) = 1.00	 
y(1,2,1) = 0.69	 y(2,1,1) = 0.31	 
y(1,3,1) = 0.70	 y(3,1,1) = 0.30	 
y(2,3,1) = 0.00	 y(3,2,1) = 1.00	 
y(0,1,2) = 0.27	 y(1,0,2) = 0.73	 
y(0,2,2) = 0.21	 y(2,0,2) = 0.79	 
y(0,3,2) = 1.00	 y(3,0,2) = 0.00	 
y(1,2,2) = 0.09	 y(2,1,2) = 0.91	 
y(1,3,2) = 1.00	 y(3,1,2) = 0.00	 
y(2,3,2) = 0.63	 y(3,2,2) = 0.37	 
y(0,1,3) = 0.00	 y(1,0,3) = 1.00	 
y(0,2,3) = 0.11	 y(2,0,3) = 0.89	 
y(0,3,3) = 0.00	 y(3,0,3) = 1.00	 
y(1,2,3) = 0.71	 y(2,1,3) = 0.29	 
y(1,3,3) = 1.00	 y(3,1,3) = 0.00	 
y(2,3,3) = 0.35	 y(3,2,3) = 0.65	 
{(0, 1), (0, 0), (2, 1), (2, 0), (1, 1)}
obj:  1.3136417039086918
erro
[(0, 1), (0, 0), (2, 1), (2, 0), (1, 1)]
cliques:  0 mip: 0
iterações: 8 cortes cliques encontrados: 5 mip: 1148 objective:  34.33333333333332
Coin0506I Presolve 157 (-171) rows, 90 (-71) columns and 490 (-260) elements
Clp1000I sum of infeasibilities 1.79124e-08 - average 1.14092e-10, 0 fixed columns
Coin0506I Presolve 157 (0) rows, 90 (0) columns and 490 (0) elements
Clp0029I End of values pass after 90 iterations
Clp0000I Optimal - objective value 29
Clp0000I Optimal - objective value 29
Coin0511I After Postsolve, objective 29, infeasibilities - dual 0 (0), primal 0 (0)
Clp0000I Optimal - objective value 29
Clp0000I Optimal - objective value 29
Clp0000I Optimal - objective value 29
Coin0511I After Postsolve, objective 29, infeasibilities - dual 0 (0), primal 0 (0)
Clp0032I Optimal objective 29 - 0 iterations time 0.012, Presolve 0.00, Idiot 0.01
Coin3009W Conflict graph built in 0.000 seconds, density: 0.070%
